z1,z2,z3,nondominated
5,8,2,0
1,6,8,0
10,2,5,0
3,4,4,0
5,9,2,0
2,4,6,0
6,1,6,0
4,5,3,0
1,7,7,0
4,3,6,0
4,7,3,0
4,3,9,0
6,7,1,0
4,3,10,0
6,4,2,0
6,3,3,0
2,6,5,0
3,4,10,0
4,7,2,0
9,2,5,0
2,5,6,0
3,10,4,0
6,6,2,0
6,3,3,0
5,2,9,0
6,5,2,0
3,3,7,0
8,1,7,0
1,6,8,0
8,1,6,0
7,1,6,0
5,8,2,0
3,4,4,0
5,3,3,0
3,6,4,0
2,4,10,0
1,1,1,0
1,1,1,0
1,1,1,0
1,1,1,0
1,1,1,0
1,1,1,0
